p edge 115 114 49
e 1 52
e 1 80
e 2 80
e 2 81
e 3 10
e 3 76
e 3 69
e 4 36
e 5 103
e 5 34
e 6 61
e 6 97
e 6 39
e 7 29
e 8 18
e 8 40
e 8 21
e 9 37
e 10 37
e 11 103
e 12 21
e 12 85
e 12 22
e 13 34
e 14 74
e 15 23
e 15 95
e 15 52
e 16 55
e 16 115
e 17 106
e 17 55
e 19 67
e 19 89
e 19 93
e 20 86
e 20 23
e 21 74
e 22 24
e 23 92
e 24 69
e 24 83
e 24 38
e 25 96
e 25 109
e 25 65
e 26 44
e 27 94
e 27 78
e 28 114
e 28 90
e 29 103
e 30 96
e 31 43
e 31 109
e 32 42
e 33 103
e 34 90
e 35 72
e 36 51
e 36 62
e 36 81
e 38 115
e 39 71
e 39 82
e 39 107
e 39 90
e 41 42
e 41 98
e 41 83
e 43 49
e 44 115
e 45 70
e 45 105
e 46 75
e 46 88
e 47 54
e 48 66
e 50 66
e 50 111
e 52 104
e 53 67
e 54 64
e 56 58
e 56 63
e 56 106
e 57 73
e 57 99
e 57 110
e 59 106
e 60 90
e 64 68
e 64 79
e 65 76
e 70 113
e 72 77
e 72 73
e 78 101
e 79 104
e 81 97
e 84 105
e 85 111
e 87 98
e 88 102
e 88 109
e 90 98
e 91 93
e 91 106
e 95 101
e 95 110
e 97 100
e 99 105
e 100 112
e 104 108
